1696
74 75 88 68 76 33 58 28 35 31 96 83 91 29 46 48 82 61 6 90 99 37 67 64 66 87 55 94 3 21 53 71 93 19 63 8 72 51 26 95 12 60 5 34 38 41 27 22 59 4 13 45 42 98 84 24 39 43 57 62 65 25 15 20 14 56 11 1 50 85 40 9 2 73 18 89 32 30 97 52 69 23 70 92 44 7 81 36 10 16 77 54 79 17 47 78 80 49 86 
